Route #1: 50 12 16 46 52 22 35 27 32 10 9 42 20 26 37 49 14 19 28 11 45 39 54 57 24 17 34 6 29 13
Route #2: 56 40 8 38 31 48 3 53 51 15 23 21 43 44 33
Route #3: 5 41 30 36 55
Route #4: 2 25 47 4 18 7
Route #5: 1
Route #6: 
Route #7: 
cost 1406.133889127079
